Maximize
  15 x_with_a_catalyst + 18 x_without_a_catalyst
Subject To
  c1: 10 x_with_a_catalyst + 15 x_without_a_catalyst <= 300
  c2: 20 x_with_a_catalyst + 12 x_without_a_catalyst <= 300
Integer
  x_with_a_catalyst x_without_a_catalyst
End